100 10
890 530
502 143
386 454
518 419
425 105
131 845
429 613
618 501
732 476
457 710
674 309
128 553
604 146
742 443
599 404
724 707
754 360
484 463
513 690
654 745
708 612
84 442
401 308
565 685
709 480
381 70
430 171
362 408
626 362
344 403
534 149
644 567
360 455
397 630
696 874
320 256
555 678
680 828
510 417
455 635
772 868
441 731
741 834
386 763
806 707
591 532
444 530
585 402
547 580
657 500
615 324
559 426
504 623
459 497
779 154
676 34
154 699
561 809
348 881
606 401
286 632
394 190
899 708
323 115
412 830
357 311
620 412
97 412
852 703
523 115
682 372
291 402
164 435
690 157
657 502
706 174
423 766
557 669
213 532
378 803
395 570
732 56
131 152
402 440
417 663
670 382
865 645
146 712
478 576
201 567
153 551
656 738
692 663
489 648
588 843
434 399
121 863
731 333
683 659
505 457
